p tdp 30 225
1 4
1 7
1 8
1 9
1 10
1 11
1 12
1 14
1 17
1 19
1 20
1 21
1 22
1 25
1 27
2 4
2 7
2 8
2 9
2 10
2 11
2 12
2 14
2 17
2 19
2 20
2 21
2 22
2 25
2 27
3 4
3 7
3 8
3 9
3 10
3 11
3 12
3 14
3 17
3 19
3 20
3 21
3 22
3 25
3 27
4 5
4 6
4 13
4 15
4 16
4 18
4 23
4 24
4 26
4 28
4 29
4 30
5 7
5 8
5 9
5 10
5 11
5 12
5 14
5 17
5 19
5 20
5 21
5 22
5 25
5 27
6 7
6 8
6 9
6 10
6 11
6 12
6 14
6 17
6 19
6 20
6 21
6 22
6 25
6 27
7 13
7 15
7 16
7 18
7 23
7 24
7 26
7 28
7 29
7 30
8 13
8 15
8 16
8 18
8 23
8 24
8 26
8 28
8 29
8 30
9 13
9 15
9 16
9 18
9 23
9 24
9 26
9 28
9 29
9 30
10 13
10 15
10 16
10 18
10 23
10 24
10 26
10 28
10 29
10 30
11 13
11 15
11 16
11 18
11 23
11 24
11 26
11 28
11 29
11 30
12 13
12 15
12 16
12 18
12 23
12 24
12 26
12 28
12 29
12 30
13 14
13 17
13 19
13 20
13 21
13 22
13 25
13 27
14 15
14 16
14 18
14 23
14 24
14 26
14 28
14 29
14 30
15 17
15 19
15 20
15 21
15 22
15 25
15 27
16 17
16 19
16 20
16 21
16 22
16 25
16 27
17 18
17 23
17 24
17 26
17 28
17 29
17 30
18 19
18 20
18 21
18 22
18 25
18 27
19 23
19 24
19 26
19 28
19 29
19 30
20 23
20 24
20 26
20 28
20 29
20 30
21 23
21 24
21 26
21 28
21 29
21 30
22 23
22 24
22 26
22 28
22 29
22 30
23 25
23 27
24 25
24 27
25 26
25 28
25 29
25 30
26 27
27 28
27 29
27 30
